NAME: line_50_9
TYPE: TSP
COMMENT: line_50_9
DIMENSION: 50
EDGE_WEIGHT_TYPE: EUC_2D
NODE_COORD_SECTION
1 0.0 199.0
2 0.0 326.0
3 0.0 175.0
4 0.0 169.0
5 0.0 342.0
6 0.0 153.0
7 0.0 102.0
8 0.0 160.0
9 0.0 398.0
10 0.0 77.0
11 0.0 117.0
12 0.0 418.0
13 0.0 405.0
14 0.0 160.0
15 0.0 145.0
16 0.0 75.0
17 0.0 362.0
18 0.0 325.0
19 0.0 460.0
20 0.0 481.0
21 0.0 22.0
22 0.0 173.0
23 0.0 156.0
24 0.0 485.0
25 0.0 371.0
26 0.0 84.0
27 0.0 213.0
28 0.0 205.0
29 0.0 448.0
30 0.0 250.0
31 0.0 57.0
32 0.0 342.0
33 0.0 247.0
34 0.0 314.0
35 0.0 134.0
36 0.0 382.0
37 0.0 255.0
38 0.0 455.0
39 0.0 351.0
40 0.0 359.0
41 0.0 381.0
42 0.0 190.0
43 0.0 247.0
44 0.0 84.0
45 0.0 25.0
46 0.0 172.0
47 0.0 40.0
48 0.0 312.0
49 0.0 360.0
50 0.0 375.0
